1585440
0,53,12,46,19,3,47,1,64,44,26,16,8,57,14,7,67,34,50,38,61,36,52,43,9,17,56,32,51,13,21,30,27,49,35,58,15,62,20,2,60,23,41,24,29,40,63,66,37,6,42,45,33,54,25,65,10,5,28,59,22,48,18,4,39,55,31,11,0